<instance format="XCSP3" type="COP">
  <variables>
    <array id="x" size="[93]"> 0..92 </array>
  </variables>
  <constraints>
    <group>
      <intension> ne(%0,%1) </intension>
      <args> x[0] x[1] </args>
      <args> x[0] x[3] </args>
      <args> x[0] x[10] </args>
      <args> x[0] x[12] </args>
      <args> x[0] x[31] </args>
      <args> x[0] x[33] </args>
      <args> x[0] x[40] </args>
      <args> x[0] x[42] </args>
      <args> x[1] x[2] </args>
      <args> x[1] x[9] </args>
      <args> x[1] x[11] </args>
      <args> x[1] x[30] </args>
      <args> x[1] x[32] </args>
      <args> x[1] x[39] </args>
      <args> x[1] x[41] </args>
      <args> x[2] x[5] </args>
      <args> x[2] x[7] </args>
      <args> x[2] x[10] </args>
      <args> x[2] x[14] </args>
      <args> x[2] x[16] </args>
      <args> x[2] x[31] </args>
      <args> x[2] x[35] </args>
      <args> x[2] x[37] </args>
      <args> x[2] x[40] </args>
      <args> x[2] x[44] </args>
      <args> x[2] x[46] </args>
      <args> x[3] x[4] </args>
      <args> x[3] x[7] </args>
      <args> x[3] x[9] </args>
      <args> x[3] x[13] </args>
      <args> x[3] x[16] </args>
      <args> x[3] x[30] </args>
      <args> x[3] x[34] </args>
      <args> x[3] x[37] </args>
      <args> x[3] x[39] </args>
      <args> x[3] x[43] </args>
      <args> x[3] x[46] </args>
      <args> x[4] x[6] </args>
      <args> x[4] x[8] </args>
      <args> x[4] x[12] </args>
      <args> x[4] x[15] </args>
      <args> x[4] x[17] </args>
      <args> x[4] x[33] </args>
      <args> x[4] x[36] </args>
      <args> x[4] x[38] </args>
      <args> x[4] x[42] </args>
      <args> x[4] x[45] </args>
      <args> x[4] x[47] </args>
      <args> x[5] x[6] </args>
      <args> x[5] x[8] </args>
      <args> x[5] x[11] </args>
      <args> x[5] x[15] </args>
      <args> x[5] x[17] </args>
      <args> x[5] x[32] </args>
      <args> x[5] x[36] </args>
      <args> x[5] x[38] </args>
      <args> x[5] x[41] </args>
      <args> x[5] x[45] </args>
      <args> x[5] x[47] </args>
      <args> x[6] x[7] </args>
      <args> x[6] x[8] </args>
      <args> x[6] x[13] </args>
      <args> x[6] x[14] </args>
      <args> x[6] x[16] </args>
      <args> x[6] x[17] </args>
      <args> x[6] x[34] </args>
      <args> x[6] x[35] </args>
      <args> x[6] x[37] </args>
      <args> x[6] x[38] </args>
      <args> x[6] x[43] </args>
      <args> x[6] x[44] </args>
      <args> x[6] x[46] </args>
      <args> x[6] x[47] </args>
      <args> x[7] x[8] </args>
      <args> x[7] x[11] </args>
      <args> x[7] x[12] </args>
      <args> x[7] x[15] </args>
      <args> x[7] x[17] </args>
      <args> x[7] x[32] </args>
      <args> x[7] x[33] </args>
      <args> x[7] x[36] </args>
      <args> x[7] x[38] </args>
      <args> x[7] x[41] </args>
      <args> x[7] x[42] </args>
      <args> x[7] x[45] </args>
      <args> x[7] x[47] </args>
      <args> x[8] x[13] </args>
      <args> x[8] x[14] </args>
      <args> x[8] x[15] </args>
      <args> x[8] x[16] </args>
      <args> x[8] x[34] </args>
      <args> x[8] x[35] </args>
      <args> x[8] x[36] </args>
      <args> x[8] x[37] </args>
      <args> x[8] x[43] </args>
      <args> x[8] x[44] </args>
      <args> x[8] x[45] </args>
      <args> x[8] x[46] </args>
      <args> x[9] x[19] </args>
      <args> x[9] x[21] </args>
      <args> x[9] x[28] </args>
      <args> x[9] x[31] </args>
      <args> x[9] x[33] </args>
      <args> x[9] x[49] </args>
      <args> x[9] x[51] </args>
      <args> x[9] x[58] </args>
      <args> x[10] x[18] </args>
      <args> x[10] x[20] </args>
      <args> x[10] x[28] </args>
      <args> x[10] x[30] </args>
      <args> x[10] x[32] </args>
      <args> x[10] x[48] </args>
      <args> x[10] x[50] </args>
      <args> x[10] x[58] </args>
      <args> x[11] x[19] </args>
      <args> x[11] x[23] </args>
      <args> x[11] x[25] </args>
      <args> x[11] x[28] </args>
      <args> x[11] x[31] </args>
      <args> x[11] x[35] </args>
      <args> x[11] x[37] </args>
      <args> x[11] x[49] </args>
      <args> x[11] x[53] </args>
      <args> x[11] x[55] </args>
      <args> x[11] x[58] </args>
      <args> x[12] x[18] </args>
      <args> x[12] x[22] </args>
      <args> x[12] x[25] </args>
      <args> x[12] x[28] </args>
      <args> x[12] x[30] </args>
      <args> x[12] x[34] </args>
      <args> x[12] x[37] </args>
      <args> x[12] x[48] </args>
      <args> x[12] x[52] </args>
      <args> x[12] x[55] </args>
      <args> x[12] x[58] </args>
      <args> x[13] x[21] </args>
      <args> x[13] x[24] </args>
      <args> x[13] x[26] </args>
      <args> x[13] x[28] </args>
      <args> x[13] x[33] </args>
      <args> x[13] x[36] </args>
      <args> x[13] x[38] </args>
      <args> x[13] x[51] </args>
      <args> x[13] x[54] </args>
      <args> x[13] x[56] </args>
      <args> x[13] x[58] </args>
      <args> x[14] x[20] </args>
      <args> x[14] x[24] </args>
      <args> x[14] x[26] </args>
      <args> x[14] x[28] </args>
      <args> x[14] x[32] </args>
      <args> x[14] x[36] </args>
      <args> x[14] x[38] </args>
      <args> x[14] x[50] </args>
      <args> x[14] x[54] </args>
      <args> x[14] x[56] </args>
      <args> x[14] x[58] </args>
      <args> x[15] x[22] </args>
      <args> x[15] x[23] </args>
      <args> x[15] x[25] </args>
      <args> x[15] x[26] </args>
      <args> x[15] x[28] </args>
      <args> x[15] x[34] </args>
      <args> x[15] x[35] </args>
      <args> x[15] x[37] </args>
      <args> x[15] x[38] </args>
      <args> x[15] x[52] </args>
      <args> x[15] x[53] </args>
      <args> x[15] x[55] </args>
      <args> x[15] x[56] </args>
      <args> x[15] x[58] </args>
      <args> x[16] x[20] </args>
      <args> x[16] x[21] </args>
      <args> x[16] x[24] </args>
      <args> x[16] x[26] </args>
      <args> x[16] x[28] </args>
      <args> x[16] x[32] </args>
      <args> x[16] x[33] </args>
      <args> x[16] x[36] </args>
      <args> x[16] x[38] </args>
      <args> x[16] x[50] </args>
      <args> x[16] x[51] </args>
      <args> x[16] x[54] </args>
      <args> x[16] x[56] </args>
      <args> x[16] x[58] </args>
      <args> x[17] x[22] </args>
      <args> x[17] x[23] </args>
      <args> x[17] x[24] </args>
      <args> x[17] x[25] </args>
      <args> x[17] x[28] </args>
      <args> x[17] x[34] </args>
      <args> x[17] x[35] </args>
      <args> x[17] x[36] </args>
      <args> x[17] x[37] </args>
      <args> x[17] x[52] </args>
      <args> x[17] x[53] </args>
      <args> x[17] x[54] </args>
      <args> x[17] x[55] </args>
      <args> x[17] x[58] </args>
      <args> x[18] x[27] </args>
      <args> x[18] x[29] </args>
      <args> x[18] x[40] </args>
      <args> x[18] x[42] </args>
      <args> x[18] x[57] </args>
      <args> x[18] x[59] </args>
      <args> x[19] x[27] </args>
      <args> x[19] x[29] </args>
      <args> x[19] x[39] </args>
      <args> x[19] x[41] </args>
      <args> x[19] x[57] </args>
      <args> x[19] x[59] </args>
      <args> x[20] x[27] </args>
      <args> x[20] x[29] </args>
      <args> x[20] x[40] </args>
      <args> x[20] x[44] </args>
      <args> x[20] x[46] </args>
      <args> x[20] x[57] </args>
      <args> x[20] x[59] </args>
      <args> x[21] x[27] </args>
      <args> x[21] x[29] </args>
      <args> x[21] x[39] </args>
      <args> x[21] x[43] </args>
      <args> x[21] x[46] </args>
      <args> x[21] x[57] </args>
      <args> x[21] x[59] </args>
      <args> x[22] x[27] </args>
      <args> x[22] x[29] </args>
      <args> x[22] x[42] </args>
      <args> x[22] x[45] </args>
      <args> x[22] x[47] </args>
      <args> x[22] x[57] </args>
      <args> x[22] x[59] </args>
      <args> x[23] x[27] </args>
      <args> x[23] x[29] </args>
      <args> x[23] x[41] </args>
      <args> x[23] x[45] </args>
      <args> x[23] x[47] </args>
      <args> x[23] x[57] </args>
      <args> x[23] x[59] </args>
      <args> x[24] x[27] </args>
      <args> x[24] x[29] </args>
      <args> x[24] x[43] </args>
      <args> x[24] x[44] </args>
      <args> x[24] x[46] </args>
      <args> x[24] x[47] </args>
      <args> x[24] x[57] </args>
      <args> x[24] x[59] </args>
      <args> x[25] x[27] </args>
      <args> x[25] x[29] </args>
      <args> x[25] x[41] </args>
      <args> x[25] x[42] </args>
      <args> x[25] x[45] </args>
      <args> x[25] x[47] </args>
      <args> x[25] x[57] </args>
      <args> x[25] x[59] </args>
      <args> x[26] x[27] </args>
      <args> x[26] x[29] </args>
      <args> x[26] x[43] </args>
      <args> x[26] x[44] </args>
      <args> x[26] x[45] </args>
      <args> x[26] x[46] </args>
      <args> x[26] x[57] </args>
      <args> x[26] x[59] </args>
      <args> x[27] x[28] </args>
      <args> x[27] x[29] </args>
      <args> x[27] x[48] </args>
      <args> x[27] x[49] </args>
      <args> x[27] x[50] </args>
      <args> x[27] x[51] </args>
      <args> x[27] x[52] </args>
      <args> x[27] x[53] </args>
      <args> x[27] x[54] </args>
      <args> x[27] x[55] </args>
      <args> x[27] x[56] </args>
      <args> x[27] x[58] </args>
      <args> x[27] x[59] </args>
      <args> x[28] x[29] </args>
      <args> x[28] x[39] </args>
      <args> x[28] x[40] </args>
      <args> x[28] x[41] </args>
      <args> x[28] x[42] </args>
      <args> x[28] x[43] </args>
      <args> x[28] x[44] </args>
      <args> x[28] x[45] </args>
      <args> x[28] x[46] </args>
      <args> x[28] x[47] </args>
      <args> x[28] x[57] </args>
      <args> x[28] x[59] </args>
      <args> x[29] x[48] </args>
      <args> x[29] x[49] </args>
      <args> x[29] x[50] </args>
      <args> x[29] x[51] </args>
      <args> x[29] x[52] </args>
      <args> x[29] x[53] </args>
      <args> x[29] x[54] </args>
      <args> x[29] x[55] </args>
      <args> x[29] x[56] </args>
      <args> x[29] x[57] </args>
      <args> x[29] x[58] </args>
      <args> x[30] x[61] </args>
      <args> x[30] x[63] </args>
      <args> x[30] x[70] </args>
      <args> x[30] x[72] </args>
      <args> x[30] x[91] </args>
      <args> x[31] x[60] </args>
      <args> x[31] x[62] </args>
      <args> x[31] x[69] </args>
      <args> x[31] x[71] </args>
      <args> x[31] x[91] </args>
      <args> x[32] x[61] </args>
      <args> x[32] x[65] </args>
      <args> x[32] x[67] </args>
      <args> x[32] x[70] </args>
      <args> x[32] x[74] </args>
      <args> x[32] x[76] </args>
      <args> x[32] x[91] </args>
      <args> x[33] x[60] </args>
      <args> x[33] x[64] </args>
      <args> x[33] x[67] </args>
      <args> x[33] x[69] </args>
      <args> x[33] x[73] </args>
      <args> x[33] x[76] </args>
      <args> x[33] x[91] </args>
      <args> x[34] x[63] </args>
      <args> x[34] x[66] </args>
      <args> x[34] x[68] </args>
      <args> x[34] x[72] </args>
      <args> x[34] x[75] </args>
      <args> x[34] x[77] </args>
      <args> x[34] x[91] </args>
      <args> x[35] x[62] </args>
      <args> x[35] x[66] </args>
      <args> x[35] x[68] </args>
      <args> x[35] x[71] </args>
      <args> x[35] x[75] </args>
      <args> x[35] x[77] </args>
      <args> x[35] x[91] </args>
      <args> x[36] x[64] </args>
      <args> x[36] x[65] </args>
      <args> x[36] x[67] </args>
      <args> x[36] x[68] </args>
      <args> x[36] x[73] </args>
      <args> x[36] x[74] </args>
      <args> x[36] x[76] </args>
      <args> x[36] x[77] </args>
      <args> x[36] x[91] </args>
      <args> x[37] x[62] </args>
      <args> x[37] x[63] </args>
      <args> x[37] x[66] </args>
      <args> x[37] x[68] </args>
      <args> x[37] x[71] </args>
      <args> x[37] x[72] </args>
      <args> x[37] x[75] </args>
      <args> x[37] x[77] </args>
      <args> x[37] x[91] </args>
      <args> x[38] x[64] </args>
      <args> x[38] x[65] </args>
      <args> x[38] x[66] </args>
      <args> x[38] x[67] </args>
      <args> x[38] x[73] </args>
      <args> x[38] x[74] </args>
      <args> x[38] x[75] </args>
      <args> x[38] x[76] </args>
      <args> x[38] x[91] </args>
      <args> x[39] x[61] </args>
      <args> x[39] x[63] </args>
      <args> x[39] x[79] </args>
      <args> x[39] x[81] </args>
      <args> x[39] x[88] </args>
      <args> x[39] x[91] </args>
      <args> x[40] x[60] </args>
      <args> x[40] x[62] </args>
      <args> x[40] x[78] </args>
      <args> x[40] x[80] </args>
      <args> x[40] x[88] </args>
      <args> x[40] x[91] </args>
      <args> x[41] x[61] </args>
      <args> x[41] x[65] </args>
      <args> x[41] x[67] </args>
      <args> x[41] x[79] </args>
      <args> x[41] x[83] </args>
      <args> x[41] x[85] </args>
      <args> x[41] x[88] </args>
      <args> x[41] x[91] </args>
      <args> x[42] x[60] </args>
      <args> x[42] x[64] </args>
      <args> x[42] x[67] </args>
      <args> x[42] x[78] </args>
      <args> x[42] x[82] </args>
      <args> x[42] x[85] </args>
      <args> x[42] x[88] </args>
      <args> x[42] x[91] </args>
      <args> x[43] x[63] </args>
      <args> x[43] x[66] </args>
      <args> x[43] x[68] </args>
      <args> x[43] x[81] </args>
      <args> x[43] x[84] </args>
      <args> x[43] x[86] </args>
      <args> x[43] x[88] </args>
      <args> x[43] x[91] </args>
      <args> x[44] x[62] </args>
      <args> x[44] x[66] </args>
      <args> x[44] x[68] </args>
      <args> x[44] x[80] </args>
      <args> x[44] x[84] </args>
      <args> x[44] x[86] </args>
      <args> x[44] x[88] </args>
      <args> x[44] x[91] </args>
      <args> x[45] x[64] </args>
      <args> x[45] x[65] </args>
      <args> x[45] x[67] </args>
      <args> x[45] x[68] </args>
      <args> x[45] x[82] </args>
      <args> x[45] x[83] </args>
      <args> x[45] x[85] </args>
      <args> x[45] x[86] </args>
      <args> x[45] x[88] </args>
      <args> x[45] x[91] </args>
      <args> x[46] x[62] </args>
      <args> x[46] x[63] </args>
      <args> x[46] x[66] </args>
      <args> x[46] x[68] </args>
      <args> x[46] x[80] </args>
      <args> x[46] x[81] </args>
      <args> x[46] x[84] </args>
      <args> x[46] x[86] </args>
      <args> x[46] x[88] </args>
      <args> x[46] x[91] </args>
      <args> x[47] x[64] </args>
      <args> x[47] x[65] </args>
      <args> x[47] x[66] </args>
      <args> x[47] x[67] </args>
      <args> x[47] x[82] </args>
      <args> x[47] x[83] </args>
      <args> x[47] x[84] </args>
      <args> x[47] x[85] </args>
      <args> x[47] x[88] </args>
      <args> x[47] x[91] </args>
      <args> x[48] x[70] </args>
      <args> x[48] x[72] </args>
      <args> x[48] x[87] </args>
      <args> x[48] x[89] </args>
      <args> x[48] x[91] </args>
      <args> x[49] x[69] </args>
      <args> x[49] x[71] </args>
      <args> x[49] x[87] </args>
      <args> x[49] x[89] </args>
      <args> x[49] x[91] </args>
      <args> x[50] x[70] </args>
      <args> x[50] x[74] </args>
      <args> x[50] x[76] </args>
      <args> x[50] x[87] </args>
      <args> x[50] x[89] </args>
      <args> x[50] x[91] </args>
      <args> x[51] x[69] </args>
      <args> x[51] x[73] </args>
      <args> x[51] x[76] </args>
      <args> x[51] x[87] </args>
      <args> x[51] x[89] </args>
      <args> x[51] x[91] </args>
      <args> x[52] x[72] </args>
      <args> x[52] x[75] </args>
      <args> x[52] x[77] </args>
      <args> x[52] x[87] </args>
      <args> x[52] x[89] </args>
      <args> x[52] x[91] </args>
      <args> x[53] x[71] </args>
      <args> x[53] x[75] </args>
      <args> x[53] x[77] </args>
      <args> x[53] x[87] </args>
      <args> x[53] x[89] </args>
      <args> x[53] x[91] </args>
      <args> x[54] x[73] </args>
      <args> x[54] x[74] </args>
      <args> x[54] x[76] </args>
      <args> x[54] x[77] </args>
      <args> x[54] x[87] </args>
      <args> x[54] x[89] </args>
      <args> x[54] x[91] </args>
      <args> x[55] x[71] </args>
      <args> x[55] x[72] </args>
      <args> x[55] x[75] </args>
      <args> x[55] x[77] </args>
      <args> x[55] x[87] </args>
      <args> x[55] x[89] </args>
      <args> x[55] x[91] </args>
      <args> x[56] x[73] </args>
      <args> x[56] x[74] </args>
      <args> x[56] x[75] </args>
      <args> x[56] x[76] </args>
      <args> x[56] x[87] </args>
      <args> x[56] x[89] </args>
      <args> x[56] x[91] </args>
      <args> x[57] x[78] </args>
      <args> x[57] x[79] </args>
      <args> x[57] x[80] </args>
      <args> x[57] x[81] </args>
      <args> x[57] x[82] </args>
      <args> x[57] x[83] </args>
      <args> x[57] x[84] </args>
      <args> x[57] x[85] </args>
      <args> x[57] x[86] </args>
      <args> x[57] x[88] </args>
      <args> x[57] x[89] </args>
      <args> x[57] x[91] </args>
      <args> x[58] x[69] </args>
      <args> x[58] x[70] </args>
      <args> x[58] x[71] </args>
      <args> x[58] x[72] </args>
      <args> x[58] x[73] </args>
      <args> x[58] x[74] </args>
      <args> x[58] x[75] </args>
      <args> x[58] x[76] </args>
      <args> x[58] x[77] </args>
      <args> x[58] x[87] </args>
      <args> x[58] x[89] </args>
      <args> x[58] x[91] </args>
      <args> x[59] x[78] </args>
      <args> x[59] x[79] </args>
      <args> x[59] x[80] </args>
      <args> x[59] x[81] </args>
      <args> x[59] x[82] </args>
      <args> x[59] x[83] </args>
      <args> x[59] x[84] </args>
      <args> x[59] x[85] </args>
      <args> x[59] x[86] </args>
      <args> x[59] x[87] </args>
      <args> x[59] x[88] </args>
      <args> x[59] x[91] </args>
      <args> x[60] x[90] </args>
      <args> x[60] x[92] </args>
      <args> x[61] x[90] </args>
      <args> x[61] x[92] </args>
      <args> x[62] x[90] </args>
      <args> x[62] x[92] </args>
      <args> x[63] x[90] </args>
      <args> x[63] x[92] </args>
      <args> x[64] x[90] </args>
      <args> x[64] x[92] </args>
      <args> x[65] x[90] </args>
      <args> x[65] x[92] </args>
      <args> x[66] x[90] </args>
      <args> x[66] x[92] </args>
      <args> x[67] x[90] </args>
      <args> x[67] x[92] </args>
      <args> x[68] x[90] </args>
      <args> x[68] x[92] </args>
      <args> x[69] x[90] </args>
      <args> x[69] x[92] </args>
      <args> x[70] x[90] </args>
      <args> x[70] x[92] </args>
      <args> x[71] x[90] </args>
      <args> x[71] x[92] </args>
      <args> x[72] x[90] </args>
      <args> x[72] x[92] </args>
      <args> x[73] x[90] </args>
      <args> x[73] x[92] </args>
      <args> x[74] x[90] </args>
      <args> x[74] x[92] </args>
      <args> x[75] x[90] </args>
      <args> x[75] x[92] </args>
      <args> x[76] x[90] </args>
      <args> x[76] x[92] </args>
      <args> x[77] x[90] </args>
      <args> x[77] x[92] </args>
      <args> x[78] x[90] </args>
      <args> x[78] x[92] </args>
      <args> x[79] x[90] </args>
      <args> x[79] x[92] </args>
      <args> x[80] x[90] </args>
      <args> x[80] x[92] </args>
      <args> x[81] x[90] </args>
      <args> x[81] x[92] </args>
      <args> x[82] x[90] </args>
      <args> x[82] x[92] </args>
      <args> x[83] x[90] </args>
      <args> x[83] x[92] </args>
      <args> x[84] x[90] </args>
      <args> x[84] x[92] </args>
      <args> x[85] x[90] </args>
      <args> x[85] x[92] </args>
      <args> x[86] x[90] </args>
      <args> x[86] x[92] </args>
      <args> x[87] x[90] </args>
      <args> x[87] x[92] </args>
      <args> x[88] x[90] </args>
      <args> x[88] x[92] </args>
      <args> x[89] x[90] </args>
      <args> x[89] x[92] </args>
      <args> x[90] x[91] </args>
      <args> x[90] x[92] </args>
      <args> x[91] x[92] </args>
    </group>
  </constraints>
  <objectives>
    <minimize type="maximum"> x[] </minimize>
  </objectives>
</instance>
